22405 : 18015 8257 
18015 : 15755 22405 
22046 : 17381 
19437 : 9992 15755 
2849 : 750 
8257 : 18895 5899 22405 
15755 : 19437 18015 
21120 : 5899 2172 
3973 : 5899 17381 
4111 : 9992 19375 
19375 : 4111 750 
750 : 19375 2849 
9992 : 19437 4111 
18895 : 8257 
5899 : 8257 21120 3973 
2172 : 21120 
17381 : 3973 22046 
19437 2849 18895 2172 22046 
